
Gurobi 6.0.4 (linux64) logging started Wed Jun 20 10:34:56 2018


Gurobi 6.0.4 (linux64) logging started Wed Jun 20 10:43:35 2018


Gurobi 6.0.4 (linux64) logging started Thu Jun 21 10:21:31 2018


Gurobi 6.0.4 (linux64) logging started Thu Jun 21 10:35:37 2018


Gurobi 6.0.4 (linux64) logging started Thu Jun 21 11:09:33 2018


Gurobi 6.0.4 (linux64) logging started Thu Jul 12 11:50:50 2018

